param givens : 1 2 3 4 5 6 7 8 9 :=
           1   5 3 . . 7 . . . .
           2   6 . . 1 9 5 . . .
           3   . 9 8 . . . . 6 .
           4   8 . . . 6 . . . 3
           5   4 . . 8 . 3 . . 1
           6   7 . . . 2 . . . 6
           7   . 6 . . . . 2 8 .
           8   . . . 4 1 9 . . 5
           9   . . . . 8 . . 7 9 ;

